p cnf 21 20
-1 20 -5 -6 -7 -10 -11 -12 -13 -14 -15 0 
-2 21 -1 0 
-3 21 -1 0 
-4 21 -1 0 
-5 6 7 10 11 12 13 14 15 21 -1 0 
-6 5 7 10 11 12 13 14 15 21 -1 0 
-7 5 6 10 11 12 13 14 15 21 -1 0 
-8 17 -9 16 21 -1 0 
-10 5 6 7 11 12 13 14 15 21 -1 0 
-11 5 6 7 10 12 13 14 15 21 -1 0 
-12 5 6 7 10 11 13 14 15 21 -1 0 
-13 5 6 7 10 11 12 14 15 21 -1 0 
-14 5 6 7 10 11 12 13 15 21 -1 0 
-15 5 6 7 10 11 12 13 14 21 -1 0 
-4 -16 9 21 -1 0 
-17 8 21 -1 0 
-18 21 -1 0 
-19 21 -1 0 
-8 17 21 -1 0 
-12 5 6 7 10 11 13 14 15 -8 17 21 -1 0 
